p cnf 81 350
1 2 3 0
-1 -2 -3 0
4 5 6 0
-4 -5 -6 0
7 8 9 0
-7 -8 -9 0
10 11 12 0
-10 -11 -12 0
13 14 15 0
-13 -14 -15 0
16 17 18 0
-16 -17 -18 0
19 20 21 0
-19 -20 -21 0
22 23 24 0
-22 -23 -24 0
25 26 27 0
-25 -26 -27 0
28 29 30 0
-28 -29 -30 0
31 32 33 0
-31 -32 -33 0
34 35 36 0
-34 -35 -36 0
37 38 39 0
-37 -38 -39 0
40 41 42 0
-40 -41 -42 0
43 44 45 0
-43 -44 -45 0
46 47 48 0
-46 -47 -48 0
49 50 51 0
-49 -50 -51 0
52 53 54 0
-52 -53 -54 0
55 56 57 0
-55 -56 -57 0
58 59 60 0
-58 -59 -60 0
61 62 63 0
-61 -62 -63 0
64 65 66 0
-64 -65 -66 0
67 68 69 0
-67 -68 -69 0
70 71 72 0
-70 -71 -72 0
73 74 75 0
-73 -74 -75 0
76 77 78 0
-76 -77 -78 0
79 80 81 0
-79 -80 -81 0
1 4 7 0
-1 -4 -7 0
2 5 8 0
-2 -5 -8 0
3 6 9 0
-3 -6 -9 0
10 13 16 0
-10 -13 -16 0
11 14 17 0
-11 -14 -17 0
12 15 18 0
-12 -15 -18 0
19 22 25 0
-19 -22 -25 0
20 23 26 0
-20 -23 -26 0
21 24 27 0
-21 -24 -27 0
28 31 34 0
-28 -31 -34 0
29 32 35 0
-29 -32 -35 0
30 33 36 0
-30 -33 -36 0
37 40 43 0
-37 -40 -43 0
38 41 44 0
-38 -41 -44 0
39 42 45 0
-39 -42 -45 0
46 49 52 0
-46 -49 -52 0
47 50 53 0
-47 -50 -53 0
48 51 54 0
-48 -51 -54 0
55 58 61 0
-55 -58 -61 0
56 59 62 0
-56 -59 -62 0
57 60 63 0
-57 -60 -63 0
64 67 70 0
-64 -67 -70 0
65 68 71 0
-65 -68 -71 0
66 69 72 0
-66 -69 -72 0
73 76 79 0
-73 -76 -79 0
74 77 80 0
-74 -77 -80 0
75 78 81 0
-75 -78 -81 0
1 5 9 0
-1 -5 -9 0
10 14 18 0
-10 -14 -18 0
19 23 27 0
-19 -23 -27 0
28 32 36 0
-28 -32 -36 0
37 41 45 0
-37 -41 -45 0
46 50 54 0
-46 -50 -54 0
55 59 63 0
-55 -59 -63 0
64 68 72 0
-64 -68 -72 0
73 77 81 0
-73 -77 -81 0
1 10 19 0
-1 -10 -19 0
2 11 20 0
-2 -11 -20 0
3 12 21 0
-3 -12 -21 0
4 13 22 0
-4 -13 -22 0
5 14 23 0
-5 -14 -23 0
6 15 24 0
-6 -15 -24 0
7 16 25 0
-7 -16 -25 0
8 17 26 0
-8 -17 -26 0
9 18 27 0
-9 -18 -27 0
28 37 46 0
-28 -37 -46 0
29 38 47 0
-29 -38 -47 0
30 39 48 0
-30 -39 -48 0
31 40 49 0
-31 -40 -49 0
32 41 50 0
-32 -41 -50 0
33 42 51 0
-33 -42 -51 0
34 43 52 0
-34 -43 -52 0
35 44 53 0
-35 -44 -53 0
36 45 54 0
-36 -45 -54 0
55 64 73 0
-55 -64 -73 0
56 65 74 0
-56 -65 -74 0
57 66 75 0
-57 -66 -75 0
58 67 76 0
-58 -67 -76 0
59 68 77 0
-59 -68 -77 0
60 69 78 0
-60 -69 -78 0
61 70 79 0
-61 -70 -79 0
62 71 80 0
-62 -71 -80 0
63 72 81 0
-63 -72 -81 0
1 11 21 0
-1 -11 -21 0
4 14 24 0
-4 -14 -24 0
7 17 27 0
-7 -17 -27 0
28 38 48 0
-28 -38 -48 0
31 41 51 0
-31 -41 -51 0
34 44 54 0
-34 -44 -54 0
55 65 75 0
-55 -65 -75 0
58 68 78 0
-58 -68 -78 0
61 71 81 0
-61 -71 -81 0
1 13 25 0
-1 -13 -25 0
2 14 26 0
-2 -14 -26 0
3 15 27 0
-3 -15 -27 0
28 40 52 0
-28 -40 -52 0
29 41 53 0
-29 -41 -53 0
30 42 54 0
-30 -42 -54 0
55 67 79 0
-55 -67 -79 0
56 68 80 0
-56 -68 -80 0
57 69 81 0
-57 -69 -81 0
1 14 27 0
-1 -14 -27 0
28 41 54 0
-28 -41 -54 0
55 68 81 0
-55 -68 -81 0
1 28 55 0
-1 -28 -55 0
2 29 56 0
-2 -29 -56 0
3 30 57 0
-3 -30 -57 0
4 31 58 0
-4 -31 -58 0
5 32 59 0
-5 -32 -59 0
6 33 60 0
-6 -33 -60 0
7 34 61 0
-7 -34 -61 0
8 35 62 0
-8 -35 -62 0
9 36 63 0
-9 -36 -63 0
10 37 64 0
-10 -37 -64 0
11 38 65 0
-11 -38 -65 0
12 39 66 0
-12 -39 -66 0
13 40 67 0
-13 -40 -67 0
14 41 68 0
-14 -41 -68 0
15 42 69 0
-15 -42 -69 0
16 43 70 0
-16 -43 -70 0
17 44 71 0
-17 -44 -71 0
18 45 72 0
-18 -45 -72 0
19 46 73 0
-19 -46 -73 0
20 47 74 0
-20 -47 -74 0
21 48 75 0
-21 -48 -75 0
22 49 76 0
-22 -49 -76 0
23 50 77 0
-23 -50 -77 0
24 51 78 0
-24 -51 -78 0
25 52 79 0
-25 -52 -79 0
26 53 80 0
-26 -53 -80 0
27 54 81 0
-27 -54 -81 0
1 29 57 0
-1 -29 -57 0
4 32 60 0
-4 -32 -60 0
7 35 63 0
-7 -35 -63 0
10 38 66 0
-10 -38 -66 0
13 41 69 0
-13 -41 -69 0
16 44 72 0
-16 -44 -72 0
19 47 75 0
-19 -47 -75 0
22 50 78 0
-22 -50 -78 0
25 53 81 0
-25 -53 -81 0
1 31 61 0
-1 -31 -61 0
2 32 62 0
-2 -32 -62 0
3 33 63 0
-3 -33 -63 0
10 40 70 0
-10 -40 -70 0
11 41 71 0
-11 -41 -71 0
12 42 72 0
-12 -42 -72 0
19 49 79 0
-19 -49 -79 0
20 50 80 0
-20 -50 -80 0
21 51 81 0
-21 -51 -81 0
1 32 63 0
-1 -32 -63 0
10 41 72 0
-10 -41 -72 0
19 50 81 0
-19 -50 -81 0
1 37 73 0
-1 -37 -73 0
2 38 74 0
-2 -38 -74 0
3 39 75 0
-3 -39 -75 0
4 40 76 0
-4 -40 -76 0
5 41 77 0
-5 -41 -77 0
6 42 78 0
-6 -42 -78 0
7 43 79 0
-7 -43 -79 0
8 44 80 0
-8 -44 -80 0
9 45 81 0
-9 -45 -81 0
1 38 75 0
-1 -38 -75 0
4 41 78 0
-4 -41 -78 0
7 44 81 0
-7 -44 -81 0
1 40 79 0
-1 -40 -79 0
2 41 80 0
-2 -41 -80 0
3 42 81 0
-3 -42 -81 0
1 41 81 0
-1 -41 -81 0